62
150
120	1
119	2
118	4
116	1
114	2
113	1
112	2
110	2
109	1
108	1
106	1
105	1
104	1
102	2
101	1
100	2
99	1
97	1
95	1
92	1
91	2
88	3
87	1
86	1
85	2
84	1
82	3
80	2
79	2
78	2
76	1
75	2
74	1
73	2
72	2
71	1
70	3
68	1
67	2
66	2
64	1
63	1
62	1
58	4
57	1
55	1
53	3
52	1
50	2
49	2
44	2
43	2
42	1
41	2
38	1
36	2
35	1
34	2
33	1
32	2
31	1
30	1
